benchmarks/bfuzz0/24057138432173396671497022981180587951.smt2
(set-logic QF_FP)
(declare-const x0 (_ FloatingPoint 8 24))
(declare-const x1 (_ FloatingPoint 8 24))
(declare-const x2 (_ FloatingPoint 8 24))
(declare-const x3 (_ FloatingPoint 8 24))
(declare-const x4 (_ FloatingPoint 8 24))
(declare-const x5 (_ FloatingPoint 8 24))
(assert (fp.leq (fp.mul RNE x2 x4) (fp.neg x1)))
(assert (fp.gt (fp.neg x3) (fp.mul RNE x0 x0)))
(assert (fp.gt (fp.mul RNE x2 x3) (fp.mul RNE x0 x1)))
(assert (fp.leq (fp.sub RNE x3 x3) (fp.neg x5)))
(assert (fp.gt (fp.div RNE x2 x3) (fp.neg x2)))
(assert (fp.eq (fp.div RNE x3 x4) (fp.mul RNE x4 x0)))
(assert (fp.geq (fp.div RNE x3 x0) (fp.mul RNE x2 x0)))
(assert (fp.geq (fp.mul RNE x5 x0) (fp.sub RNE x2 x3)))
(assert (fp.gt (fp.mul RNE x5 x1) (fp.add RNE x0 x1)))
(check-sat)
