db/data/24057138432173396671497022981180587951.z3.out
sat
-------------------
31.074841045
